Te Pb 
 1.0000000000000000
     0.0000000000000000   16.4259833999999998   16.4259833999999998
    16.4259833999999998    0.0000000000000000   16.4259833999999998
    16.4259833999999998   16.4259833999999998    0.0000000000000000
 Te  Pb 
 125 125
Cartesian
  3.2792294000000002  3.2352423699999999  3.3650271900000002
  3.1954391000000002  6.8213610600000001  6.6677765800000000
  3.3205471000000002  9.9698448200000005  9.5202150299999992
  2.9985055900000002 13.2247971999999994 12.5107145000000006
  3.4742734400000002 16.8514079999999993 16.3821982999999989
  6.3127579699999998  3.6471703099999999  6.4368996599999999
  6.4426932299999997  6.8071136499999998  9.7757883099999994
  6.5490369800000003  9.8497943899999996 12.8436889999999995
  6.4316363299999999 13.3362988999999992 16.1227303000000006
  6.2109608700000001 16.3392048000000010 19.9595528000000009
  9.7088546800000000  3.2486596099999998 10.2828511999999996
  9.8806390799999999  6.5534048100000000 13.0859641999999994
  9.9931440400000007  9.8398523299999994 16.2711429999999986
 10.2211169999999996 12.8506087999999998 19.9337100999999990
 10.0779981999999997 16.4462814000000002 22.7145195000000015
 12.7311726000000007  3.0873739699999998 13.0703182000000009
 13.3455610000000000  6.2529344599999996 16.2810401999999996
 13.2827187000000002  9.8207454700000003 19.8260365000000007
 13.3568601999999998 13.1939525999999994 23.1604957999999996
 13.0011530000000004 16.4841461000000002 26.1076125999999995
 16.3015231999999983  3.3528037099999999 16.5610980999999988
 16.4013576999999984  6.7701525699999996 19.6487273999999985
 16.4546680000000016 10.0110349999999997 23.1065693000000003
 16.1767138999999993 13.4335612999999992 26.2879696000000003
 16.6461697000000015 16.2681675000000006 29.5930271000000005
  6.5386409800000003  6.4762415899999999  3.5376903999999998
  6.3393182799999996  9.9249696699999994  6.8712678000000000
  6.7438793199999996 13.3142528999999996  9.7573938400000007
  6.6707167600000004 16.6827049000000009 13.1172599999999999
  6.2158289000000000 20.0531405999999990 16.4939059999999991
  9.7808589900000005  6.6511759799999997  6.6721095999999998
  9.8559284199999997  9.8292856200000003 10.0451669999999993
  9.9619808200000008 12.6025705000000006 12.9392881000000006
  9.8921318100000004 16.5018597000000007 16.6313381000000007
  9.9615163800000008 19.6269187999999986 20.0585899000000012
 13.1797971999999994  6.4249568000000004  9.8133182500000000
 13.3119420999999996  9.6801157000000000 13.0789556999999999
 13.1695433000000008 13.1515454999999992 16.2808379999999993
 13.2876291000000002 16.2340735999999985 19.5853175999999998
 12.7883920999999994 19.7053584999999991 23.1966000000000001
 16.3465461999999988  6.4239349399999996 12.9156866000000008
 16.6204089999999987 10.1790304000000003 16.3807448999999998
 16.5795001999999982 13.2422447000000005 20.0364055999999984
 16.3515586999999982 16.2976130999999995 23.0196208999999996
 16.7121352999999999 19.8746432999999989 26.1571883999999990
 19.6256485000000005  6.3009586300000002 16.2971611000000003
 19.9676913999999996 10.1414232000000002 19.8103122999999997
 19.6855316000000009 13.1838864999999998 22.8731955999999990
 19.3998507999999994 16.6433678000000000 26.3758507000000009
 19.3786488000000006 19.5357208000000000 29.3944073000000010
  9.9124393499999996  9.8259611099999997  3.6811714200000001
  9.6642751699999998 13.2989730999999995  6.5349974599999996
  9.9272546800000008 16.1321334999999983 10.0544156999999998
  9.6867999999999999 19.7397078999999991 13.4378194999999998
  9.7518300999999994 23.0690421999999984 16.5336570999999992
 13.0034408999999993  9.7804002800000003  6.4391279199999998
 13.3676767000000005 13.1607503999999995  9.9451532399999998
 13.0021219000000006 16.4260386999999994 12.9348668999999994
 13.0317077999999995 19.8308067000000001 16.5146331999999987
 13.1336870000000001 22.6162948999999998 19.7383938000000008
 16.6451092000000003  9.5654640200000003  9.9591560399999999
 16.2526854999999983 13.1686353999999994 12.9573336000000001
 16.3618392999999998 16.1832789999999989 16.5706042999999994
 16.5954781000000011 19.7812786000000003 19.6767292000000005
 16.7190398999999985 22.8899231000000007 22.8584060999999998
 19.6735802000000000  9.7986946100000001 13.4802551000000008
 19.5751476000000011 12.4912595999999994 16.4198093000000007
 19.6445636999999991 16.4421463000000010 19.6889667999999993
 19.7824401999999999 19.8086987000000008 22.7250118000000008
 19.4602547000000001 23.1619643999999987 26.3393230000000003
 23.4470139000000017 10.0686350000000004 16.6339435999999985
 22.9716644000000016 12.7890052999999995 19.4006042000000001
 23.0655727000000006 16.4809398999999992 22.7996254000000000
 23.1789397999999984 19.9229221000000010 26.2873497000000000
 22.8087672999999995 23.0903434999999995 29.3933524999999989
 13.0960692999999999 13.1130791000000002  3.1174502400000002
 13.4432372999999998 16.1628456000000007  6.3689684900000003
 13.0837068999999993 19.6546078000000009  9.9037227600000008
 13.0541076999999994 23.0721302000000001 13.0594826000000008
 13.3811263999999994 26.4129562000000000 16.3825396999999988
 16.2263373999999985 13.0089845999999998  6.3251476300000000
 16.1901168999999996 16.1818789999999986  9.8208265299999997
 16.6319255999999989 19.4225311000000005 13.3953743000000003
 15.9655398999999996 22.9066887000000001 16.1848124999999996
 16.4151382000000012 26.3130436000000003 19.6166191000000012
 19.7166348000000013 12.9050206999999997  9.6671304700000000
 19.6047915999999987 16.0867022999999989 13.4408512000000009
 19.6649475000000002 19.3397101999999990 16.4616736999999986
 19.5169296000000010 22.9872227000000002 19.3021965000000009
 20.1215629999999983 26.4367827999999996 23.0476494000000010
 23.0964241000000001 12.9918604000000002 13.1659479000000008
 23.1865482000000007 16.2591475999999986 16.3737564000000013
 23.1816616000000018 19.5554713999999983 19.7001437999999993
 22.9979876999999995 22.8418941000000011 22.7978133999999990
 22.8087119999999999 26.2049103000000017 26.2484760000000001
 25.8881073000000015 12.8662624000000001 16.1194552999999985
 26.3446807999999990 16.4155921999999990 19.8469753000000004
 26.5576267000000001 19.8608723000000005 23.1846886000000012
 25.9467677999999999 22.9602183999999987 26.3020057999999999
 26.2980136999999985 26.5566940000000002 29.5415458999999991
 16.3118191000000010 16.3643761000000012  3.1584100700000000
 16.4010925000000007 19.6572589999999998  6.7961626099999997
 16.4366512000000000 22.8921069999999993  9.5219135300000008
 16.3719138999999991 26.0534821000000001 13.0790013999999992
 16.1414185000000003 29.6102866999999996 16.2846374999999988
 20.0711346000000006 16.5129775999999993  6.8330073400000000
 19.5789967000000011 19.7646389000000013  9.9169778799999992
 19.7799930999999987 23.1281928999999984 13.1605959000000006
 19.5477847999999987 26.4879761000000009 16.0669861000000012
 19.7947692999999987 29.3716468999999982 19.6585883999999993
 22.8994904000000012 15.9325189999999992 10.1007003999999991
 22.9372119999999988 19.7554149999999993 13.0698413999999996
 22.8903904000000011 22.8684463999999998 16.3506278999999992
 23.4143429000000012 26.3476906000000000 19.5678139000000009
 23.1651744999999991 29.5607681000000007 22.7868996000000017
 26.0785084000000005 16.3032283999999983 13.3241853999999993
 26.0719603999999983 19.6572646999999989 16.5816574000000010
 26.3484115999999986 22.9726906000000000 19.5787315000000000
 26.5222778000000012 26.2007083999999999 22.5884743000000014
 26.3056525999999984 29.4453907000000008 26.2117462000000003
 29.6837043999999999 16.6188563999999985 16.2451381999999995
 29.4858189000000017 19.3187694999999984 19.6911601999999988
 29.4015255000000018 22.8505229999999990 23.0303344999999986
 29.2342490999999995 26.4058093999999990 26.1468449000000014
 29.4482078999999999 29.6621303999999988 29.7001972000000016
 32.5743064999999987 16.4217891999999992 16.3091946000000014
 32.7824973999999969 19.9846134000000006 20.0062485000000017
  0.1147326980000000  6.3971662499999997  6.4305477099999999
 16.1346798000000007 25.8388138000000005  9.8991050699999992
 16.3719311000000012 29.3034840000000010 13.1143435999999998
 19.3416747999999998 16.6971625999999986  3.8994696100000001
 19.7999249000000006 19.6119994999999996  6.6045208000000004
 19.4447097999999983 23.3088073999999992 10.0682144000000005
  3.1894986599999999  9.8927612299999996 12.9469470999999992
  3.4688589599999999 13.8564834999999995 15.5257453999999999
 23.0088425000000001 32.4417343000000002 22.9170398999999989
 22.7746676999999984 19.8270930999999990  9.7516984900000008
  6.8419866599999999  6.6313962899999996 12.6497907999999999
  6.9678115800000002 10.1368799000000003 16.2966328000000011
 22.8602160999999988 29.3923167999999997 19.8671474000000003
 26.2398834000000001 32.4783783000000028 26.2468986999999991
 25.8607635000000009 19.5417003999999999 13.3324432000000002
 10.0697603000000004  6.8620386099999999 16.4662857000000002
 10.0603914000000003  9.6469926800000003 19.5480422999999988
 10.1470269999999996 13.2582655000000003 22.9471607000000013
 13.2018594999999994 16.4741324999999996 29.4718322999999991
 29.2284012000000004 19.8901862999999999 16.7163277000000008
 29.3153514999999985 22.6493339999999996 19.7954903000000009
 13.4491958999999994  9.7059488300000005 23.0105019000000013
 29.5348624999999991 29.5696143999999990 26.6128788000000007
 19.3201332000000008  3.3499355300000002 16.4837494000000007
 19.5512103999999987  7.2215986299999999 19.7466468999999982
 19.6927872000000015  9.9542541500000006 22.8687800999999986
 19.9480666999999983 13.6954993999999992 25.6842022000000014
 19.6893616000000016 16.4978504000000008 29.5320530000000012
  6.4788670499999998  3.0383527300000002  3.4692530600000002
  6.6891565300000000  6.5498437899999997  6.5323719999999996
  6.3572301900000001 10.2389001999999998  9.9008636499999998
  6.3110942799999998 13.0416907999999996 12.9406289999999995
  6.3767905200000001 17.0748405000000005 16.3552607999999999
  9.6064138400000001  3.1800618200000002  6.7803850199999998
  9.6983041799999992  6.6942944500000001  9.8757123900000003
  9.7287111300000007  9.6357259800000001 13.1119766000000002
  9.6676225700000007 13.3636818000000002 16.5086136000000003
  9.6273488999999994 16.0766753999999992 19.6777514999999994
 12.9290047000000001  3.2273216200000001  9.8532810200000007
 13.2630148000000005  6.4900207500000002 13.0949296999999998
 13.6750135000000004  9.8207330699999993 16.9678077999999992
 13.4640532000000004 13.3787184000000003 20.0438633000000017
 13.0872563999999993 16.6541500000000013 22.9224415000000015
 16.3899344999999990  3.4529733700000000 13.1185826999999993
 16.6467953000000009  6.5458240500000002 16.5907173000000014
 16.3284702000000017 10.1536655000000007 20.1068038999999992
 16.5588435999999994 13.2598543000000006 23.2282963000000002
 16.0217171000000000 16.5163593000000013 26.2509517999999993
 23.0581302999999984  6.7859029800000004 16.3568573000000015
  6.8768744499999999  9.6207885700000002  3.6932742599999999
  6.6994619399999999 13.2370433999999992  6.9554300299999996
 22.6414413000000003 16.8367347999999986 26.5182971999999992
 23.0525589000000011 19.8675785000000005 29.5389632999999989
  9.9585237499999995  6.7403769499999999  3.2632241199999998
  9.4000806800000003  9.8689498899999997  7.0680236799999996
 10.2918453000000003 12.9015427000000003  9.8155956300000007
  9.9045343399999997 16.4398307999999993 13.5834025999999994
 10.1411905000000004 19.5525723000000013 16.8993339999999996
 13.4478740999999999 22.9352817999999985 22.7868195000000000
 13.6114224999999998  9.5612773900000008  9.9229164099999991
 13.1606789000000006 13.1430187000000007 13.0244645999999999
 13.1681080000000001 16.1440449000000008 16.1640510999999982
 13.1857737999999998 19.4332293999999983 19.8471088000000009
 16.5170077999999982 22.7421398000000003 25.8119240000000012
 16.3092441999999984  9.6825666399999992 13.2296858000000004
 16.4939174999999985 13.2686586000000002 16.8695126000000002
 16.4626045000000012 16.6231194000000002 19.9135418000000008
 16.2560997000000000 19.6351508999999993 22.9610194999999990
 19.8767986000000008 22.9441509000000003 29.2466927000000005
 20.4261207999999996  9.3139724699999995 16.6417141000000015
 20.0177917000000001 13.0516614999999998 19.6245307999999987
 19.8822918000000008 16.3430824000000001 22.8552913999999987
 19.8034381999999987 19.6756133999999996 26.3112315999999993
 10.1344899999999996 26.1319485000000000 16.8439884000000006
 26.0214251999999995 12.9831103999999993 19.4906119999999987
 10.0091619000000005 16.3228149000000009  7.0234098400000002
  9.8366317700000003 19.6633110000000002 10.2396668999999996
 26.0597762999999993 23.3826962000000016 29.4994793000000008
 13.4311542999999993 26.3492527000000010 19.3358878999999995
 13.0503415999999994 12.6191902000000002  6.4502525300000002
 12.8915424000000005 16.4907475000000012  9.6940908399999994
 13.5153531999999998 19.7881050000000016 13.1925448999999997
 12.7341985999999991 23.1893044000000010 16.5131492999999985
 16.1976241999999999 10.1914195999999997  6.3762254699999996
 16.5382308999999985 12.9251784999999995  9.6326618199999992
 16.4773788000000003 16.2966042000000009 13.3271169999999994
 16.6037159000000010 19.4923266999999996 16.5478972999999989
 16.2545357000000017 23.0335751000000002 19.4131774999999998
 19.5925446000000001  9.7834033999999992 10.4886283999999996
 19.9102515999999987 13.0517787999999992 12.8997221000000000
 19.8476505000000003 16.1211643000000002 16.4979876999999995
 19.8127232000000006 19.9603672000000003 19.7693480999999984
 20.0711402999999997 23.5548019000000011 22.3432980000000008
 22.9426726999999993 26.2200737000000004 29.4580039999999990
 22.9248562000000007 13.0650606000000007 16.3011550999999990
 23.1799831000000012 16.1788673000000003 19.8881149000000015
 22.9743461999999994 19.7492465999999993 22.9754086000000015
 22.6069564999999990 23.0974751000000005 25.8586081999999990
 29.3414554999999986 13.1727103999999997 16.5231895000000009
 29.5755768000000003 16.4535084000000005 19.4881096000000014
 13.0010376000000001 19.6149197000000015  6.9598765399999998
 29.3242702000000008 22.8402710000000013 26.2724322999999984
 29.6677436999999991 26.3478221999999995 29.5017680999999996
 16.3746375999999998 29.6711388000000014 19.4665965999999990
 16.3220710999999987 16.3243465000000008  6.7732262600000004
 16.3093566999999986 19.3511981999999989 10.0616941000000004
 16.3616065999999982 22.7214984999999992 12.9959582999999999
 16.4911975999999996 26.2646294000000005 16.0645752000000002
 19.8926601000000005 29.8170891000000005 22.8185767999999989
 19.6390437999999996 16.6426791999999999 10.2638388000000003
 19.8526573000000006 19.6288051999999986 13.1815146999999993
 19.9680119000000005 23.3696327000000004 16.1585979000000002
 19.7867774999999995 26.5625171999999985 19.5598068000000005
 22.8599682000000008 13.0500440999999991  9.8289918899999993
 22.7767334000000012 16.6413058999999990 13.2796173000000000
 23.1608391000000005 19.7091598999999995 16.4089850999999989
 23.0193386000000011 22.9691295999999987 19.4338054999999983
 23.1635971000000005 26.6551341999999991 22.9145278999999995
 26.5277348000000011 29.7718601000000014 29.3683815000000017
 26.1560763999999999 16.3597298000000002 16.6331157999999988
 26.4124392999999991 19.7381495999999999 20.1567745000000009
 26.4989433000000005 23.1061039000000008 22.9516621000000001
 26.2028312999999997 26.2950629999999990 25.9941025000000003
